c 
c G(n,p) graph
c graph gen seed     : 25003
c number of vertices : 25
c max number of edges: 500
c edge probability   : 0.400000
c data structure     : sparse
c
c           Graph Stats
c number of vertices  : 25
c nonisolated vertices: 25
c number of edges     : 106
c edge density        : 0.353333
c max degree          : 11
c avg degree          : 8.48
c min degree          : 4
p col 25 106
e 1 25
e 1 24
e 1 19
e 1 12
e 1 11
e 1 7
e 1 6
e 1 5
e 1 4
e 1 3
e 2 23
e 2 20
e 2 18
e 2 16
e 2 11
e 2 6
e 3 25
e 3 22
e 3 21
e 3 19
e 3 17
e 3 16
e 3 15
e 3 8
e 3 6
e 4 24
e 4 23
e 4 22
e 4 20
e 4 19
e 4 17
e 4 14
e 4 12
e 4 11
e 5 23
e 5 16
e 5 15
e 5 10
e 6 22
e 6 20
e 6 17
e 6 14
e 6 12
e 6 11
e 6 10
e 6 7
e 7 24
e 7 23
e 7 21
e 7 13
e 7 12
e 7 11
e 7 10
e 8 25
e 8 23
e 8 19
e 8 18
e 8 16
e 8 10
e 8 9
e 9 24
e 9 23
e 9 20
e 9 17
e 9 15
e 9 13
e 10 22
e 10 20
e 10 19
e 10 15
e 10 14
e 11 24
e 11 23
e 11 22
e 11 18
e 11 13
e 12 24
e 12 19
e 13 22
e 13 20
e 13 19
e 13 18
e 13 14
e 14 23
e 14 20
e 14 19
e 14 18
e 15 25
e 15 23
e 15 22
e 15 19
e 15 18
e 16 24
e 16 17
e 17 23
e 17 22
e 17 21
e 17 19
e 17 18
e 18 24
e 18 21
e 19 20
e 20 22
e 20 21
e 21 24
e 21 23
